NAME          alm4s
ROWS
 N  ROWOBJ  
 E  R1      
 E  R2      
 E  R3      
 E  R4      
 E  R5      
 E  R6      
 G  R7      
 G  R8      
 G  R9      
 G  R10     
 L  R11     
 L  R12     
 L  R13     
 L  R14     
 G  R15     
 L  R16     
 G  R17     
 E  R18     
 E  R19     
 E  R20     
 E  R21     
 E  R22     
 E  R23     
 G  R24     
 G  R25     
 G  R26     
 G  R27     
 L  R28     
 L  R29     
 L  R30     
 L  R31     
 G  R32     
 L  R33     
 G  R34     
 E  R35     
 E  R36     
 E  R37     
 E  R38     
 E  R39     
 E  R40     
 G  R41     
 G  R42     
 G  R43     
 G  R44     
 L  R45     
 L  R46     
 L  R47     
 L  R48     
 G  R49     
 L  R50     
 G  R51     
 E  R52     
 E  R53     
 E  R54     
 E  R55     
 E  R56     
 E  R57     
 G  R58     
 G  R59     
 G  R60     
 G  R61     
 L  R62     
 L  R63     
 L  R64     
 L  R65     
 G  R66     
 L  R67     
 G  R68     
 E  R69     
 E  R70     
 E  R71     
 E  R72     
 E  R73     
 E  R74     
 G  R75     
 G  R76     
 G  R77     
 G  R78     
 L  R79     
 L  R80     
 L  R81     
 L  R82     
 G  R83     
 L  R84     
 G  R85     
 E  R86     
 E  R87     
 E  R88     
 E  R89     
 E  R90     
 E  R91     
 G  R92     
 G  R93     
 G  R94     
 G  R95     
 L  R96     
 L  R97     
 L  R98     
 L  R99     
 G  R100    
 L  R101    
 G  R102    
 E  R103    
 E  R104    
 E  R105    
 E  R106    
 E  R107    
 E  R108    
 G  R109    
 G  R110    
 G  R111    
 G  R112    
 L  R113    
 L  R114    
 L  R115    
 L  R116    
 G  R117    
 L  R118    
 G  R119    
 E  R120    
 G  R121    
 G  R122    
 E  R123    
 G  R124    
 G  R125    
 E  R126    
 G  R127    
 G  R128    
 E  R129    
 G  R130    
 G  R131    
 E  R132    
 G  R133    
 G  R134    
 E  R135    
 G  R136    
 G  R137    
 E  R138    
 G  R139    
 G  R140    
 E  R141    
 G  R142    
 G  R143    
COLUMNS
    C1        ROWOBJ            1.25
    C1        R1                 1.0
    C2        R1                -1.0
    C2        R6                 1.0
    C2        R17                1.0
    C3        R2             0.99575
    C3        R6            -0.00425
    C4        R3              0.9985
    C4        R6             -0.0015
    C5        R4             0.99575
    C5        R6            -0.00425
    C6        R5              0.9995
    C6        R6             -0.0005
    C7        R2            -1.00425
    C7        R6            -0.00425
    C8        R3             -1.0015
    C8        R6             -0.0015
    C9        R4            -1.00425
    C9        R6            -0.00425
    C10       R5             -1.0005
    C10       R6             -0.0005
    C11       R2                -1.0
    C11       R6                -1.0
    C11       R7                 0.7
    C11       R8                -0.3
    C11       R9                -0.1
    C11       R11                0.4
    C11       R12               -0.6
    C11       R13              -0.25
    C11       R14               -0.2
    C11       R18              213.0
    C11       R19              217.0
    C11       R35              223.0
    C11       R36              227.0
    C12       R3                -1.0
    C12       R6                -1.0
    C12       R7                -0.3
    C12       R8                 0.7
    C12       R9                -0.1
    C12       R11               -0.6
    C12       R12                0.4
    C12       R13              -0.25
    C12       R14               -0.2
    C12       R18              214.0
    C12       R20              218.0
    C12       R35              224.0
    C12       R37              228.0
    C13       R4                -1.0
    C13       R6                -1.0
    C13       R7                -0.3
    C13       R8                -0.3
    C13       R9                 0.9
    C13       R11               -0.6
    C13       R12               -0.6
    C13       R13               0.75
    C13       R14               -0.2
    C13       R18              215.0
    C13       R21              219.0
    C13       R35              225.0
    C13       R38              229.0
    C14       R5                -1.0
    C14       R6                -1.0
    C14       R7                -0.3
    C14       R8                -0.3
    C14       R9                -0.1
    C14       R10                1.0
    C14       R11               -0.6
    C14       R12               -0.6
    C14       R13              -0.25
    C14       R14                0.8
    C14       R18              216.0
    C14       R22              220.0
    C14       R35              226.0
    C14       R39              230.0
    C15       ROWOBJ       10255.194
    C15       R15                1.0
    C15       R16                1.0
    C15       R18              211.0
    C15       R35              221.0
    C16       ROWOBJ       0.6058125
    C16       R18                1.0
    C17       R18               -1.0
    C17       R23                1.0
    C17       R34                1.0
    C18       R19            0.99575
    C18       R23           -0.00425
    C19       R20             0.9985
    C19       R23            -0.0015
    C20       R21            0.99575
    C20       R23           -0.00425
    C21       R22             0.9995
    C21       R23            -0.0005
    C22       R19           -1.00425
    C22       R23           -0.00425
    C23       R20            -1.0015
    C23       R23            -0.0015
    C24       R21           -1.00425
    C24       R23           -0.00425
    C25       R22            -1.0005
    C25       R23            -0.0005
    C26       R19               -1.0
    C26       R23               -1.0
    C26       R24                0.7
    C26       R25               -0.3
    C26       R26               -0.1
    C26       R28                0.4
    C26       R29               -0.6
    C26       R30              -0.25
    C26       R31               -0.2
    C26       R52              313.0
    C26       R53              317.0
    C26       R69              323.0
    C26       R70              327.0
    C27       R20               -1.0
    C27       R23               -1.0
    C27       R24               -0.3
    C27       R25                0.7
    C27       R26               -0.1
    C27       R28               -0.6
    C27       R29                0.4
    C27       R30              -0.25
    C27       R31               -0.2
    C27       R52              314.0
    C27       R54              318.0
    C27       R69              324.0
    C27       R71              328.0
    C28       R21               -1.0
    C28       R23               -1.0
    C28       R24               -0.3
    C28       R25               -0.3
    C28       R26                0.9
    C28       R28               -0.6
    C28       R29               -0.6
    C28       R30               0.75
    C28       R31               -0.2
    C28       R52              315.0
    C28       R55              319.0
    C28       R69              325.0
    C28       R72              329.0
    C29       R22               -1.0
    C29       R23               -1.0
    C29       R24               -0.3
    C29       R25               -0.3
    C29       R26               -0.1
    C29       R27                1.0
    C29       R28               -0.6
    C29       R29               -0.6
    C29       R30              -0.25
    C29       R31                0.8
    C29       R52              316.0
    C29       R56              320.0
    C29       R69              326.0
    C29       R73              330.0
    C30       ROWOBJ        4942.548
    C30       R32                1.0
    C30       R33                1.0
    C30       R52              311.0
    C30       R69              321.0
    C31       ROWOBJ       0.6058125
    C31       R35                1.0
    C32       R35               -1.0
    C32       R40                1.0
    C32       R51                1.0
    C33       R36            0.99575
    C33       R40           -0.00425
    C34       R37             0.9985
    C34       R40            -0.0015
    C35       R38            0.99575
    C35       R40           -0.00425
    C36       R39             0.9995
    C36       R40            -0.0005
    C37       R36           -1.00425
    C37       R40           -0.00425
    C38       R37            -1.0015
    C38       R40            -0.0015
    C39       R38           -1.00425
    C39       R40           -0.00425
    C40       R39            -1.0005
    C40       R40            -0.0005
    C41       R36               -1.0
    C41       R40               -1.0
    C41       R41                0.7
    C41       R42               -0.3
    C41       R43               -0.1
    C41       R45                0.4
    C41       R46               -0.6
    C41       R47              -0.25
    C41       R48               -0.2
    C41       R86              333.0
    C41       R87              337.0
    C41       R103             343.0
    C41       R104             347.0
    C42       R37               -1.0
    C42       R40               -1.0
    C42       R41               -0.3
    C42       R42                0.7
    C42       R43               -0.1
    C42       R45               -0.6
    C42       R46                0.4
    C42       R47              -0.25
    C42       R48               -0.2
    C42       R86              334.0
    C42       R88              338.0
    C42       R103             344.0
    C42       R105             348.0
    C43       R38               -1.0
    C43       R40               -1.0
    C43       R41               -0.3
    C43       R42               -0.3
    C43       R43                0.9
    C43       R45               -0.6
    C43       R46               -0.6
    C43       R47               0.75
    C43       R48               -0.2
    C43       R86              335.0
    C43       R89              339.0
    C43       R103             345.0
    C43       R106             349.0
    C44       R39               -1.0
    C44       R40               -1.0
    C44       R41               -0.3
    C44       R42               -0.3
    C44       R43               -0.1
    C44       R44                1.0
    C44       R45               -0.6
    C44       R46               -0.6
    C44       R47              -0.25
    C44       R48                0.8
    C44       R86              336.0
    C44       R90              340.0
    C44       R103             346.0
    C44       R107             350.0
    C45       ROWOBJ        4942.548
    C45       R49                1.0
    C45       R50                1.0
    C45       R86              331.0
    C45       R103             341.0
    C46       ROWOBJ        0.290875
    C46       R52                1.0
    C47       R52               -1.0
    C47       R57                1.0
    C47       R68                1.0
    C48       R53            0.99575
    C49       R54             0.9985
    C50       R55            0.99575
    C51       R56             0.9995
    C52       R53           -1.00425
    C53       R54            -1.0015
    C54       R55           -1.00425
    C55       R56            -1.0005
    C56       R53               -1.0
    C56       R57               -1.0
    C56       R58                0.7
    C56       R59               -0.3
    C56       R60               -0.1
    C56       R62                0.4
    C56       R63               -0.6
    C56       R64              -0.25
    C56       R65               -0.2
    C56       R120             413.0
    C56       R123             423.0
    C57       R54               -1.0
    C57       R57               -1.0
    C57       R58               -0.3
    C57       R59                0.7
    C57       R60               -0.1
    C57       R62               -0.6
    C57       R63                0.4
    C57       R64              -0.25
    C57       R65               -0.2
    C57       R120             414.0
    C57       R123             424.0
    C58       R55               -1.0
    C58       R57               -1.0
    C58       R58               -0.3
    C58       R59               -0.3
    C58       R60                0.9
    C58       R62               -0.6
    C58       R63               -0.6
    C58       R64               0.75
    C58       R65               -0.2
    C58       R120             415.0
    C58       R123             425.0
    C59       R56               -1.0
    C59       R57               -1.0
    C59       R58               -0.3
    C59       R59               -0.3
    C59       R60               -0.1
    C59       R61                1.0
    C59       R62               -0.6
    C59       R63               -0.6
    C59       R64              -0.25
    C59       R65                0.8
    C59       R120             416.0
    C59       R123             426.0
    C60       ROWOBJ      2375.74575
    C60       R66                1.0
    C60       R67                1.0
    C60       R120             411.0
    C60       R123             421.0
    C61       ROWOBJ        0.290875
    C61       R69                1.0
    C62       R69               -1.0
    C62       R74                1.0
    C62       R85                1.0
    C63       R70            0.99575
    C64       R71             0.9985
    C65       R72            0.99575
    C66       R73             0.9995
    C67       R70           -1.00425
    C68       R71            -1.0015
    C69       R72           -1.00425
    C70       R73            -1.0005
    C71       R70               -1.0
    C71       R74               -1.0
    C71       R75                0.7
    C71       R76               -0.3
    C71       R77               -0.1
    C71       R79                0.4
    C71       R80               -0.6
    C71       R81              -0.25
    C71       R82               -0.2
    C71       R126             433.0
    C71       R129             443.0
    C72       R71               -1.0
    C72       R74               -1.0
    C72       R75               -0.3
    C72       R76                0.7
    C72       R77               -0.1
    C72       R79               -0.6
    C72       R80                0.4
    C72       R81              -0.25
    C72       R82               -0.2
    C72       R126             434.0
    C72       R129             444.0
    C73       R72               -1.0
    C73       R74               -1.0
    C73       R75               -0.3
    C73       R76               -0.3
    C73       R77                0.9
    C73       R79               -0.6
    C73       R80               -0.6
    C73       R81               0.75
    C73       R82               -0.2
    C73       R126             435.0
    C73       R129             445.0
    C74       R73               -1.0
    C74       R74               -1.0
    C74       R75               -0.3
    C74       R76               -0.3
    C74       R77               -0.1
    C74       R78                1.0
    C74       R79               -0.6
    C74       R80               -0.6
    C74       R81              -0.25
    C74       R82                0.8
    C74       R126             436.0
    C74       R129             446.0
    C75       ROWOBJ      2375.74575
    C75       R83                1.0
    C75       R84                1.0
    C75       R126             431.0
    C75       R129             441.0
    C76       ROWOBJ        0.290875
    C76       R86                1.0
    C77       R86               -1.0
    C77       R91                1.0
    C77       R102               1.0
    C78       R87            0.99575
    C79       R88             0.9985
    C80       R89            0.99575
    C81       R90             0.9995
    C82       R87           -1.00425
    C83       R88            -1.0015
    C84       R89           -1.00425
    C85       R90            -1.0005
    C86       R87               -1.0
    C86       R91               -1.0
    C86       R92                0.7
    C86       R93               -0.3
    C86       R94               -0.1
    C86       R96                0.4
    C86       R97               -0.6
    C86       R98              -0.25
    C86       R99               -0.2
    C86       R132             453.0
    C86       R135             463.0
    C87       R88               -1.0
    C87       R91               -1.0
    C87       R92               -0.3
    C87       R93                0.7
    C87       R94               -0.1
    C87       R96               -0.6
    C87       R97                0.4
    C87       R98              -0.25
    C87       R99               -0.2
    C87       R132             454.0
    C87       R135             464.0
    C88       R89               -1.0
    C88       R91               -1.0
    C88       R92               -0.3
    C88       R93               -0.3
    C88       R94                0.9
    C88       R96               -0.6
    C88       R97               -0.6
    C88       R98               0.75
    C88       R99               -0.2
    C88       R132             455.0
    C88       R135             465.0
    C89       R90               -1.0
    C89       R91               -1.0
    C89       R92               -0.3
    C89       R93               -0.3
    C89       R94               -0.1
    C89       R95                1.0
    C89       R96               -0.6
    C89       R97               -0.6
    C89       R98              -0.25
    C89       R99                0.8
    C89       R132             456.0
    C89       R135             466.0
    C90       ROWOBJ      2375.74575
    C90       R100               1.0
    C90       R101               1.0
    C90       R132             451.0
    C90       R135             461.0
    C91       ROWOBJ        0.290875
    C91       R103               1.0
    C92       R103              -1.0
    C92       R108               1.0
    C92       R119               1.0
    C93       R104           0.99575
    C94       R105            0.9985
    C95       R106           0.99575
    C96       R107            0.9995
    C97       R104          -1.00425
    C98       R105           -1.0015
    C99       R106          -1.00425
    C100      R107           -1.0005
    C101      R104              -1.0
    C101      R108              -1.0
    C101      R109               0.7
    C101      R110              -0.3
    C101      R111              -0.1
    C101      R113               0.4
    C101      R114              -0.6
    C101      R115             -0.25
    C101      R116              -0.2
    C101      R138             473.0
    C101      R141             483.0
    C102      R105              -1.0
    C102      R108              -1.0
    C102      R109              -0.3
    C102      R110               0.7
    C102      R111              -0.1
    C102      R113              -0.6
    C102      R114               0.4
    C102      R115             -0.25
    C102      R116              -0.2
    C102      R138             474.0
    C102      R141             484.0
    C103      R106              -1.0
    C103      R108              -1.0
    C103      R109              -0.3
    C103      R110              -0.3
    C103      R111               0.9
    C103      R113              -0.6
    C103      R114              -0.6
    C103      R115              0.75
    C103      R116              -0.2
    C103      R138             475.0
    C103      R141             485.0
    C104      R107              -1.0
    C104      R108              -1.0
    C104      R109              -0.3
    C104      R110              -0.3
    C104      R111              -0.1
    C104      R112               1.0
    C104      R113              -0.6
    C104      R114              -0.6
    C104      R115             -0.25
    C104      R116               0.8
    C104      R138             476.0
    C104      R141             486.0
    C105      ROWOBJ      2375.74575
    C105      R117               1.0
    C105      R118               1.0
    C105      R138             471.0
    C105      R141             481.0
    C106      ROWOBJ     0.138640625
    C106      R120               1.0
    C107      R120              -1.0
    C107      R121               1.0
    C107      R122               1.0
    C108      ROWOBJ        0.133095
    C108      R122               1.0
    C109      ROWOBJ     0.138640625
    C109      R123               1.0
    C110      R123              -1.0
    C110      R124               1.0
    C110      R125               1.0
    C111      ROWOBJ        0.133095
    C111      R125               1.0
    C112      ROWOBJ     0.138640625
    C112      R126               1.0
    C113      R126              -1.0
    C113      R127               1.0
    C113      R128               1.0
    C114      ROWOBJ        0.133095
    C114      R128               1.0
    C115      ROWOBJ     0.138640625
    C115      R129               1.0
    C116      R129              -1.0
    C116      R130               1.0
    C116      R131               1.0
    C117      ROWOBJ        0.133095
    C117      R131               1.0
    C118      ROWOBJ     0.138640625
    C118      R132               1.0
    C119      R132              -1.0
    C119      R133               1.0
    C119      R134               1.0
    C120      ROWOBJ        0.133095
    C120      R134               1.0
    C121      ROWOBJ     0.138640625
    C121      R135               1.0
    C122      R135              -1.0
    C122      R136               1.0
    C122      R137               1.0
    C123      ROWOBJ        0.133095
    C123      R137               1.0
    C124      ROWOBJ     0.138640625
    C124      R138               1.0
    C125      R138              -1.0
    C125      R139               1.0
    C125      R140               1.0
    C126      ROWOBJ        0.133095
    C126      R140               1.0
    C127      ROWOBJ     0.138640625
    C127      R141               1.0
    C128      R141              -1.0
    C128      R142               1.0
    C128      R143               1.0
    C129      ROWOBJ        0.133095
    C129      R143               1.0
RHS
    RHS1      R1            -16513.4
    RHS1      R2             -7656.0
    RHS1      R3             -4048.0
    RHS1      R4             -3080.0
    RHS1      R5             -1056.0
    RHS1      R16               0.21
    RHS1      R17            15960.0
    RHS1      R18              220.0
    RHS1      R33               0.21
    RHS1      R34              221.0
    RHS1      R35              230.0
    RHS1      R50               0.21
    RHS1      R51              231.0
    RHS1      R52              320.0
    RHS1      R67               0.21
    RHS1      R68              321.0
    RHS1      R69              330.0
    RHS1      R84               0.21
    RHS1      R85              331.0
    RHS1      R86              340.0
    RHS1      R101              0.21
    RHS1      R102             341.0
    RHS1      R103             350.0
    RHS1      R118              0.21
    RHS1      R119             351.0
    RHS1      R120             416.0
    RHS1      R121             417.0
    RHS1      R122             418.0
    RHS1      R123             426.0
    RHS1      R124             427.0
    RHS1      R125             428.0
    RHS1      R126             436.0
    RHS1      R127             437.0
    RHS1      R128             438.0
    RHS1      R129             446.0
    RHS1      R130             447.0
    RHS1      R131             448.0
    RHS1      R132             456.0
    RHS1      R133             457.0
    RHS1      R134             458.0
    RHS1      R135             466.0
    RHS1      R136             467.0
    RHS1      R137             468.0
    RHS1      R138             476.0
    RHS1      R139             477.0
    RHS1      R140             478.0
    RHS1      R141             486.0
    RHS1      R142             487.0
    RHS1      R143             488.0
ENDATA
